
Gurobi 11.0.1 (win64) logging started Mon Apr  1 12:43:46 2024

Set parameter LogFile to value "C:\Projetos\Job_Rotation_Algorithms\Outputs\GurobiLogs\gurobi_log-output-75_hes-c71-CostaMirallesModel-NoExtraConstraint-2.log"
Gurobi Optimizer version 11.0.1 build v11.0.1rc0 (win64 - Windows 10.0 (19045.2))

CPU model: 11th Gen Intel(R) Core(TM) i7-1165G7 @ 2.80GHz, instruction set [SSE2|AVX|AVX2|AVX512]
Thread count: 4 physical cores, 8 logical processors, using up to 1 threads


Gurobi 11.0.1 (win64) logging started Mon Apr  1 21:31:41 2024

Set parameter LogFile to value "C:\Projetos\Job_Rotation_Algorithms\Outputs\GurobiLogs\gurobi_log-output-75_hes-c71-CostaMirallesModel-NoExtraConstraint-2.log"
Gurobi Optimizer version 11.0.1 build v11.0.1rc0 (win64 - Windows 10.0 (19045.2))

CPU model: 11th Gen Intel(R) Core(TM) i7-1165G7 @ 2.80GHz, instruction set [SSE2|AVX|AVX2|AVX512]
Thread count: 4 physical cores, 8 logical processors, using up to 1 threads


Gurobi 11.0.1 (win64) logging started Thu Apr  4 23:29:35 2024

Set parameter LogFile to value "C:\Projetos\Job_Rotation_Algorithms\Outputs\GurobiLogs\gurobi_log-output-75_hes-c71-CostaMirallesModel-NoExtraConstraint-2.log"
Gurobi Optimizer version 11.0.1 build v11.0.1rc0 (win64 - Windows 10.0 (19045.2))

CPU model: 11th Gen Intel(R) Core(TM) i7-1165G7 @ 2.80GHz, instruction set [SSE2|AVX|AVX2|AVX512]
Thread count: 4 physical cores, 8 logical processors, using up to 1 threads


Gurobi 11.0.1 (win64) logging started Sat Apr  6 12:58:23 2024

Set parameter LogFile to value "C:\Projetos\Job_Rotation_Algorithms\Outputs\GurobiLogs\gurobi_log-output-75_hes-c71-CostaMirallesModel-NoExtraConstraint-2.log"
Gurobi Optimizer version 11.0.1 build v11.0.1rc0 (win64 - Windows 10.0 (19045.2))

CPU model: 11th Gen Intel(R) Core(TM) i7-1165G7 @ 2.80GHz, instruction set [SSE2|AVX|AVX2|AVX512]
Thread count: 4 physical cores, 8 logical processors, using up to 1 threads


Gurobi 11.0.1 (win64) logging started Sun Apr  7 02:32:03 2024

Set parameter LogFile to value "C:\Projetos\Job_Rotation_Algorithms\Outputs\GurobiLogs\gurobi_log-output-75_hes-c71-CostaMirallesModel-NoExtraConstraint-2.log"
Gurobi Optimizer version 11.0.1 build v11.0.1rc0 (win64 - Windows 10.0 (19045.2))

CPU model: 11th Gen Intel(R) Core(TM) i7-1165G7 @ 2.80GHz, instruction set [SSE2|AVX|AVX2|AVX512]
Thread count: 4 physical cores, 8 logical processors, using up to 1 threads


Gurobi 11.0.1 (win64) logging started Sun Apr  7 09:44:57 2024

Set parameter LogFile to value "C:\Projetos\Job_Rotation_Algorithms\Outputs\GurobiLogs\gurobi_log-output-75_hes-c71-CostaMirallesModel-NoExtraConstraint-2.log"
Gurobi Optimizer version 11.0.1 build v11.0.1rc0 (win64 - Windows 10.0 (19045.2))

CPU model: 11th Gen Intel(R) Core(TM) i7-1165G7 @ 2.80GHz, instruction set [SSE2|AVX|AVX2|AVX512]
Thread count: 4 physical cores, 8 logical processors, using up to 1 threads


Gurobi 11.0.1 (win64) logging started Tue Apr  9 08:03:16 2024

Set parameter LogFile to value "C:\Projetos\Job_Rotation_Algorithms\Outputs\GurobiLogs\gurobi_log-output-75_hes-c71-CostaMirallesModel-NoExtraConstraint-2.log"
Gurobi Optimizer version 11.0.1 build v11.0.1rc0 (win64 - Windows 10.0 (19045.2))

CPU model: 11th Gen Intel(R) Core(TM) i7-1165G7 @ 2.80GHz, instruction set [SSE2|AVX|AVX2|AVX512]
Thread count: 4 physical cores, 8 logical processors, using up to 1 threads


Gurobi 11.0.1 (win64) logging started Wed Apr 10 17:32:18 2024

Set parameter LogFile to value "C:\Projetos\Job_Rotation_Algorithms\Outputs\GurobiLogs\gurobi_log-output-75_hes-c71-CostaMirallesModel-NoExtraConstraint-2.log"
Gurobi Optimizer version 11.0.1 build v11.0.1rc0 (win64 - Windows 10.0 (19045.2))

CPU model: 11th Gen Intel(R) Core(TM) i7-1165G7 @ 2.80GHz, instruction set [SSE2|AVX|AVX2|AVX512]
Thread count: 4 physical cores, 8 logical processors, using up to 1 threads


Gurobi 11.0.1 (win64) logging started Thu Apr 11 01:38:18 2024

Set parameter LogFile to value "C:\Projetos\Job_Rotation_Algorithms\Outputs\GurobiLogs\gurobi_log-output-75_hes-c71-CostaMirallesModel-NoExtraConstraint-2.log"
Gurobi Optimizer version 11.0.1 build v11.0.1rc0 (win64 - Windows 10.0 (19045.2))

CPU model: 11th Gen Intel(R) Core(TM) i7-1165G7 @ 2.80GHz, instruction set [SSE2|AVX|AVX2|AVX512]
Thread count: 4 physical cores, 8 logical processors, using up to 1 threads


Gurobi 11.0.1 (win64) logging started Sat Apr 13 12:37:44 2024

Set parameter LogFile to value "C:\Projetos\Job_Rotation_Algorithms\Outputs\GurobiLogs\gurobi_log-output-75_hes-c71-CostaMirallesModel-NoExtraConstraint-2.log"
Gurobi Optimizer version 11.0.1 build v11.0.1rc0 (win64 - Windows 10.0 (19045.2))

CPU model: 11th Gen Intel(R) Core(TM) i7-1165G7 @ 2.80GHz, instruction set [SSE2|AVX|AVX2|AVX512]
Thread count: 4 physical cores, 8 logical processors, using up to 1 threads

WLS license 901038 - registered to Bitka Analytics
Optimize a model with 937 rows, 2710 columns and 33370 nonzeros
Model fingerprint: 0x78931617
Variable types: 2 continuous, 2708 integer (2708 binary)
Coefficient statistics:
  Matrix range     [1e+00, 2e+02]
  Objective range  [1e+00, 1e+00]
  Bounds range     [1e+00, 1e+02]
  RHS range        [1e+00, 1e+02]
Presolve removed 290 rows and 931 columns
Presolve time: 0.25s
Presolved: 647 rows, 1779 columns, 14397 nonzeros
Variable types: 0 continuous, 1779 integer (1778 binary)

Root relaxation: objective 5.500000e+01, 706 iterations, 0.00 seconds (0.01 work units)

    Nodes    |    Current Node    |     Objective Bounds      |     Work
 Expl Unexpl |  Obj  Depth IntInf | Incumbent    BestBd   Gap | It/Node Time

     0     0   55.00000    0   41          -   55.00000      -     -    0s
     0     0   55.00000    0   42          -   55.00000      -     -    0s
     0     0   55.00000    0  232          -   55.00000      -     -    0s
     0     0   55.00000    0  181          -   55.00000      -     -    0s
     0     0   55.00000    0  173          -   55.00000      -     -    0s
     0     0   55.00000    0  181          -   55.00000      -     -    0s
     0     0   55.00000    0   61          -   55.00000      -     -    0s
     0     0   55.00000    0   68          -   55.00000      -     -    0s
     0     0   55.00000    0   65          -   55.00000      -     -    0s
     0     0   55.00000    0   55          -   55.00000      -     -    0s
     0     0   55.00000    0   52          -   55.00000      -     -    0s
     0     0   55.00000    0   49          -   55.00000      -     -    0s
     0     2   55.00000    0   42          -   55.00000      -     -    1s
*  712   315              54      46.0000000   55.00000  19.6%  55.7    3s
   796   355   55.00000    4   86   46.00000   55.00000  19.6%  61.9    5s
H  939   343                      48.0000000   55.00000  14.6%  93.0    8s
H  942   304                      49.0000000   55.00000  12.2%  92.7    8s
* 1029   266              43      50.0000000   55.00000  10.0%  95.9    9s
  1037   264 infeasible   16        50.00000   55.00000  10.0%  96.7   10s
H 1172   228                      51.0000000   55.00000  7.84%   105   11s
  1370   167   55.00000   17  124   51.00000   55.00000  7.84%   118   15s
H 1469   123                      52.0000000   55.00000  5.77%   125   16s
  1657    96 infeasible   23        52.00000   55.00000  5.77%   132   20s
  1889   118 infeasible   24        52.00000   55.00000  5.77%   144   25s
  2080   125   55.00000   23   68   52.00000   55.00000  5.77%   155   30s
  2216   145   54.00000   31   69   52.00000   55.00000  5.77%   157   36s
  2333   156   55.00000   27  158   52.00000   55.00000  5.77%   158   40s
  2473   159   55.00000   20  126   52.00000   55.00000  5.77%   163   45s
  2729   179 infeasible   28        52.00000   55.00000  5.77%   167   50s
  2894   203   53.00000   29  143   52.00000   55.00000  5.77%   170   55s
  3131   223   53.70126   24  150   52.00000   55.00000  5.77%   173   60s
  3344   238   55.00000   25  109   52.00000   55.00000  5.77%   176   65s
  3702   277   55.00000   27   94   52.00000   55.00000  5.77%   178   70s
  4106   290   55.00000   24  106   52.00000   55.00000  5.77%   177   75s
  4323   319   54.95691   34  144   52.00000   55.00000  5.77%   181   80s
  4575   331 infeasible   22        52.00000   55.00000  5.77%   183   85s
  4835   343   55.00000   28   74   52.00000   55.00000  5.77%   187   90s
  5137   354   55.00000   27   78   52.00000   55.00000  5.77%   189   95s
  5445   362     cutoff   26        52.00000   55.00000  5.77%   188  100s
  5650   384   54.82424   20  151   52.00000   55.00000  5.77%   189  105s
  5870   383   55.00000   27  197   52.00000   55.00000  5.77%   191  110s
  6148   363   54.97778   25  149   52.00000   54.97778  5.73%   191  115s
  6681   340     cutoff   27        52.00000   54.73538  5.26%   189  120s
  7566   183   53.90513   23  152   52.00000   54.00000  3.85%   181  125s
  8128   117     cutoff   37        52.00000   53.95101  3.75%   178  130s

Cutting planes:
  Cover: 90
  Clique: 25
  MIR: 9
  StrongCG: 10
  Flow cover: 46
  GUB cover: 4
  Zero half: 4
  RLT: 3
  Relax-and-lift: 1

Explored 8441 nodes (1482314 simplex iterations) in 131.52 seconds (104.34 work units)
Thread count was 1 (of 8 available processors)

Solution count 6: 52 51 50 ... 46

Optimal solution found (tolerance 1.00e-03)
Best objective 5.200000000000e+01, best bound 5.200000000000e+01, gap 0.0000%
